4HSiC
   1.00000000000000
     3.0876333220980370    0.0000000000000000    0.0000000000000000
    -1.5438166610490185    2.6739688944996551   -0.0000000000000000
    -0.0000000000000000    0.0000000000000000   10.1081149113697109
   Si   C
     4     4
Direct
  0.3333333429999996  0.6666666870000029  0.4378418440877582
  0.6666666870000029  0.3333333429999996  0.9378418440877583
  0.0000000000000000  0.0000000000000000  0.1878975483177575
  0.0000000000000000 -0.0000000000000000  0.6878975783177529
  0.3333333429999996  0.6666666870000029  0.2498101942812674
  0.6666666870000029  0.3333333429999996  0.7498101942812673
 -0.0000000000000000 -0.0000000000000000  0.0004503893132054
 -0.0000000000000000 -0.0000000000000000  0.5004503703132074